c nIsolatedPIs 0
c maxPI 16
p cnf 60 133
c gate 17 -4 12 0
-4 -17 0
12 -17 0
4 -12 17 0
c gate 18 4 -12 0
4 -18 0
-12 -18 0
-4 12 18 0
c gate 19 -3 11 0
-3 -19 0
11 -19 0
3 -11 19 0
c gate 20 3 -11 0
3 -20 0
-11 -20 0
-3 11 20 0
c gate 21 -2 10 0
-2 -21 0
10 -21 0
2 -10 21 0
c gate 22 2 -10 0
2 -22 0
-10 -22 0
-2 10 22 0
c gate 23 1 -9 0
1 -23 0
-9 -23 0
-1 9 23 0
c gate 24 -22 -23 0
-22 -24 0
-23 -24 0
22 23 24 0
c gate 25 -21 -24 0
-21 -25 0
-24 -25 0
21 24 25 0
c gate 26 -20 -25 0
-20 -26 0
-25 -26 0
20 25 26 0
c gate 27 -19 -26 0
-19 -27 0
-26 -27 0
19 26 27 0
c gate 28 -18 -27 0
-18 -28 0
-27 -28 0
18 27 28 0
c gate 29 -17 -28 0
-17 -29 0
-28 -29 0
17 28 29 0
c gate 30 6 -14 0
6 -30 0
-14 -30 0
-6 14 30 0
c gate 31 5 -13 0
5 -31 0
-13 -31 0
-5 13 31 0
c gate 32 -30 -31 0
-30 -32 0
-31 -32 0
30 31 32 0
c gate 33 -6 14 0
-6 -33 0
14 -33 0
6 -14 33 0
c gate 34 -5 13 0
-5 -34 0
13 -34 0
5 -13 34 0
c gate 35 -33 -34 0
-33 -35 0
-34 -35 0
33 34 35 0
c gate 36 32 35 0
32 -36 0
35 -36 0
-32 -35 36 0
c gate 37 -29 36 0
-29 -37 0
36 -37 0
29 -36 37 0
c gate 38 -19 -20 0
-19 -38 0
-20 -38 0
19 20 38 0
c gate 39 -1 9 0
-1 -39 0
9 -39 0
1 -9 39 0
c gate 40 -21 -39 0
-21 -40 0
-39 -40 0
21 39 40 0
c gate 41 -22 -40 0
-22 -41 0
-40 -41 0
22 40 41 0
c gate 42 38 41 0
38 -42 0
41 -42 0
-38 -41 42 0
c gate 43 -19 -42 0
-19 -43 0
-42 -43 0
19 42 43 0
c gate 44 -17 43 0
-17 -44 0
43 -44 0
17 -43 44 0
c gate 45 37 -44 0
37 -45 0
-44 -45 0
-37 44 45 0
c gate 46 8 -16 0
8 -46 0
-16 -46 0
-8 16 46 0
c gate 47 7 -15 0
7 -47 0
-15 -47 0
-7 15 47 0
c gate 48 -32 -33 0
-32 -48 0
-33 -48 0
32 33 48 0
c gate 49 -47 -48 0
-47 -49 0
-48 -49 0
47 48 49 0
c gate 50 -8 16 0
-8 -50 0
16 -50 0
8 -16 50 0
c gate 51 -7 15 0
-7 -51 0
15 -51 0
7 -15 51 0
c gate 52 -50 -51 0
-50 -52 0
-51 -52 0
50 51 52 0
c gate 53 -49 52 0
-49 -53 0
52 -53 0
49 -52 53 0
c gate 54 -46 -53 0
-46 -54 0
-53 -54 0
46 53 54 0
c gate 55 36 52 0
36 -55 0
52 -55 0
-36 -52 55 0
c gate 56 54 55 0
54 -56 0
55 -56 0
-54 -55 56 0
c gate 57 29 56 0
29 -57 0
56 -57 0
-29 -56 57 0
c gate 58 54 -57 0
54 -58 0
-57 -58 0
-54 57 58 0
c gate 59 36 -58 0
36 -59 0
-58 -59 0
-36 58 59 0
c gate 60 -45 59 0
-45 -60 0
59 -60 0
45 -59 60 0
c PO
60 0
